GLPSOL: GLPK LP/MIP Solver, v4.65
Parameter(s) specified in the command line:
 -m DS_shift_sche.mod -d DS_shift_sche.dat -o DS_shift_sche_result.txt --log
 DS_shift_sche_log.txt
Reading model section from DS_shift_sche.mod...
DS_shift_sche.mod:55: warning: unexpected end of file; missing end statement inserted
55 lines were read
Reading data section from DS_shift_sche.dat...
DS_shift_sche.dat:23: warning: unexpected end of file; missing end statement inserted
23 lines were read
Generating Objective...
Generating LB_shift...
Generating UB_shift...
Generating LB_shift_SunSat...
Generating PGM_shift_commit...
Generating LB_Staff_Satisfy...
Generating UB_Staff_Satisfy...
Generating Shift...
Model has been successfully generated
GLPK Integer Optimizer, v4.65
123 rows, 79 columns, 452 non-zeros
77 integer variables, all of which are binary
Preprocessing...
4 hidden packing inequaliti(es) were detected
37 rows, 41 columns, 183 non-zeros
39 integer variables, all of which are binary
Scaling...
 A: min|aij| =  1.000e+00  max|aij| =  1.000e+00  ratio =  1.000e+00
Problem data seem to be well scaled
Constructing initial basis...
Size of triangular part is 37
Solving LP relaxation...
GLPK Simplex Optimizer, v4.65
37 rows, 41 columns, 183 non-zeros
      0: obj =   0.000000000e+00 inf =   3.600e+01 (22)
     16: obj =   3.000000000e+00 inf =   0.000e+00 (0)
*    29: obj =   5.000000000e-01 inf =   0.000e+00 (0)
OPTIMAL LP SOLUTION FOUND
Integer optimization begins...
Long-step dual simplex will be used
+    29: mip =     not found yet >=              -inf        (1; 0)
+    31: >>>>>   1.000000000e+00 >=   1.000000000e+00   0.0% (3; 0)
+    31: mip =   1.000000000e+00 >=     tree is empty   0.0% (0; 5)
INTEGER OPTIMAL SOLUTION FOUND
Time used:   0.0 secs
Memory used: 0.3 Mb (319437 bytes)
Writing MIP solution to 'DS_shift_sche_result.txt'...
